104414
50,55,16,76,57,73,31,81,74,39,10,6,26,32,15,37,1,29,34,27,78,5,60,82,7,58,67,43,21,4,18,30,23,47,20,8,19,66,75,13,69,61,79,25,35,65,70,45,53,44,28,9,0,63,72,12,36,17,64,49,3,52,62,38,51,40,77,68,14,24,41,54,22,11,2,42,56,33,48,46,59,80,71
